objective value:                                 -521
t_x11                                               1 	(obj:-100)
t_x121                                              1 	(obj:-100)
t_x130                                              1 	(obj:-100)
t_x173                                              1 	(obj:-100)
t_x175                                              1 	(obj:-100)
t_x199                                              1 	(obj:-100)
t_y121_205                                          1 	(obj:1)
t_y57_173                                           1 	(obj:1)
t_y55_173                                           1 	(obj:1)
t_y11_98                                            1 	(obj:1)
t_y74_121                                           1 	(obj:1)
t_y13_130                                           1 	(obj:1)
t_y12_130                                           1 	(obj:1)
t_y155_175                                          1 	(obj:1)
t_y11_126                                           1 	(obj:1)
t_y175_191                                          1 	(obj:1)
t_y173_187                                          1 	(obj:1)
t_y11_136                                           1 	(obj:1)
t_y74_199                                           1 	(obj:1)
t_y121_169                                          1 	(obj:1)
t_y11_191                                           1 	(obj:1)
t_y34_121                                           1 	(obj:1)
t_y39_121                                           1 	(obj:1)
t_y11_85                                            1 	(obj:1)
t_y84_130                                           1 	(obj:1)
t_y81_130                                           1 	(obj:1)
t_y175_192                                          1 	(obj:1)
t_y58_199                                           1 	(obj:1)
t_y78_130                                           1 	(obj:1)
t_y84_173                                           1 	(obj:1)
t_y121_140                                          1 	(obj:1)
t_y11_157                                           1 	(obj:1)
t_y20_173                                           1 	(obj:1)
t_y79_199                                           1 	(obj:1)
t_y16_199                                           1 	(obj:1)
t_y74_130                                           1 	(obj:1)
t_y8_173                                            1 	(obj:1)
t_y175_176                                          1 	(obj:1)
t_y173_185                                          1 	(obj:1)
t_y12_121                                           1 	(obj:1)
t_y173_195                                          1 	(obj:1)
t_y107_130                                          1 	(obj:1)
t_y27_121                                           1 	(obj:1)
t_y26_173                                           1 	(obj:1)
t_y7_121                                            1 	(obj:1)
t_y175_179                                          1 	(obj:1)
t_y138_173                                          1 	(obj:1)
t_y91_199                                           1 	(obj:1)
t_y11_192                                           1 	(obj:1)
t_y58_173                                           1 	(obj:1)
t_y175_208                                          1 	(obj:1)
t_y13_199                                           1 	(obj:1)
t_y31_173                                           1 	(obj:1)
t_y11_159                                           1 	(obj:1)
t_y95_175                                           1 	(obj:1)
t_y11_53                                            1 	(obj:1)
t_y83_121                                           1 	(obj:1)
t_y121_198                                          1 	(obj:1)
t_y137_175                                          1 	(obj:1)
t_y5_175                                            1 	(obj:1)
t_y63_121                                           1 	(obj:1)
t_y126_199                                          1 	(obj:1)
t_y45_173                                           1 	(obj:1)
t_y17_121                                           1 	(obj:1)
t_y121_145                                          1 	(obj:1)
t_y11_158                                           1 	(obj:1)
t_y88_175                                           1 	(obj:1)
t_y106_121                                          1 	(obj:1)
t_y121_163                                          1 	(obj:1)
t_y121_164                                          1 	(obj:1)
t_y91_121                                           1 	(obj:1)
t_y143_175                                          1 	(obj:1)
t_y11_91                                            1 	(obj:1)
t_y11_80                                            1 	(obj:1)
t_y56_121                                           1 	(obj:1)
t_y130_177                                          1 	(obj:1)
t_y12_173                                           1 	(obj:1)
t_y27_175                                           1 	(obj:1)
t_y141_199                                          1 	(obj:1)
t_y96_175                                           1 	(obj:1)
t_y60_199                                           1 	(obj:1)
t_y11_62                                            1 	(obj:1)
t_y5_121                                            1 	(obj:1)
t_y11_44                                            1 	(obj:1)
t_y151_175                                          1 	(obj:1)
